(set-logic HORN)

(declare-datatypes ((node 0)) (((node  (next Int) (data Int)))))
(declare-datatypes ((HeapObject 0)) (((O_Int  (getInt Int)) (O_UInt  (getUInt Int)) (O_Addr  (getAddr Int)) (O_node  (getnode node)) (defObj ))))
(declare-datatypes ((Heap 0)) (((HeapCtor  (HeapSize Int) (HeapContents (Array Int HeapObject))))))

(declare-fun |inv_main12| ( Heap Int Int Int Int Int Int ) Bool)
(declare-fun |inv_main43| ( Heap Int Int Int Int ) Bool)
(declare-fun |inv_main50| ( Heap Int Int Int Int Int Int Int Int ) Bool)
(declare-fun |inv_main28| ( Heap Int Int Int Int Int Int Int Int ) Bool)
(declare-fun |inv_main4| ( Heap Int Int ) Bool)
(declare-fun |inv_main55| ( Heap Int Int Int Int ) Bool)
(declare-fun |inv_main79| ( Heap Int Int Int Int ) Bool)
(declare-fun |inv_main65| ( Heap Int Int Int Int Int Int Int ) Bool)
(declare-fun |inv_main22| ( Heap Int Int Int Int Int Int ) Bool)
(declare-fun |CHC_COMP_FALSE| ( ) Bool)
(declare-fun |inv_main34| ( Heap Int Int Int Int Int Int Int Int ) Bool)
(declare-fun |inv_main76| ( Heap Int Int Int Int Int Int ) Bool)
(declare-fun |inv_main64| ( Heap Int Int Int Int Int Int Int ) Bool)
(declare-fun |inv_main51| ( Heap Int Int Int Int Int Int Int Int ) Bool)
(declare-fun |inv_main18| ( Heap Int Int Int Int Int Int ) Bool)
(declare-fun |inv_main36| ( Heap Int Int Int Int Int Int Int ) Bool)
(declare-fun |inv_main21| ( Heap Int Int Int Int Int Int ) Bool)
(declare-fun |inv_main72| ( Heap Int Int Int Int Int ) Bool)

(assert
  (forall ( (A Heap) (v_1 Int) (v_2 Int) ) 
    (=>
      (and
        (and (= A (HeapCtor 0 ((as const (Array Int HeapObject)) defObj)))
     (= 2 v_1)
     (= 1 v_2))
      )
      (inv_main4 A v_1 v_2)
    )
  )
)
(assert
  (forall ( (A Int) (B Int) (C Int) (D Int) (E Int) (F Int) (G Int) (H Int) (I Heap) (J Int) (K Int) (L Int) (M Int) (N Int) (O Int) (P Int) (Q Int) (R Heap) ) 
    (=>
      (and
        (inv_main65 R Q P O N M L K)
        (let ((a!1 (ite (and (not (<= L 0)) (>= (HeapSize R) L))
                (select (HeapContents R) L)
                defObj)))
  (and (= J K)
       (= H Q)
       (= G P)
       (= F O)
       (= E N)
       (= D M)
       (= C L)
       (= B (next (getnode a!1)))
       (= I R)
       ((_ is O_node) a!1)
       (not (<= 2 J))
       (= A (+ (- 1) J))))
      )
      (inv_main64 I H G F E D B A)
    )
  )
)
(assert
  (forall ( (A Int) (B Int) (C Int) (D Int) (E Int) (F Heap) (v_6 Int) (v_7 Int) ) 
    (=>
      (and
        (inv_main55 F E D C B)
        (and (<= 1 (+ E (* (- 1) B))) (not (<= 1 B)) (= A (+ B E)) (= v_6 C) (= v_7 B))
      )
      (inv_main64 F E D C B A v_6 v_7)
    )
  )
)
(assert
  (forall ( (A Heap) (B Int) (C Int) (D Int) (E Int) (F Int) (G Int) (H Int) (I Int) (J Heap) ) 
    (=>
      (and
        (inv_main28 J I H G F E D C B)
        (let ((a!1 (ite (and (not (<= B 0)) (>= (HeapSize J) B))
                (select (HeapContents J) B)
                defObj)))
(let ((a!2 (O_node (node 0 (data (getnode a!1))))))
(let ((a!3 (ite (and (not (<= B 0)) (>= (HeapSize J) B))
                (HeapCtor (HeapSize J) (store (HeapContents J) B a!2))
                J)))
  (and ((_ is O_node) a!1) (= A a!3)))))
      )
      (inv_main34 A I H G F E D C B)
    )
  )
)
(assert
  (forall ( (A Int) (B Int) (C Int) (D Int) (E Int) (F Int) (G Int) (H Int) (I Heap) (J Int) (K Int) (L Int) (M Int) (N Int) (O Int) (P Int) (Q Int) (R Heap) ) 
    (=>
      (and
        (inv_main65 R Q P O N M L K)
        (let ((a!1 (ite (and (not (<= L 0)) (>= (HeapSize R) L))
                (select (HeapContents R) L)
                defObj)))
  (and (= J K)
       (= H Q)
       (= G P)
       (= F O)
       (= E N)
       (= D M)
       (= C L)
       (= B (next (getnode a!1)))
       (= I R)
       ((_ is O_node) a!1)
       (<= 2 J)
       (= A (+ (- 1) J))))
      )
      (inv_main65 I H G F E D B A)
    )
  )
)
(assert
  (forall ( (A Int) (B Int) (C Int) (D Int) (E Int) (F Heap) (v_6 Int) (v_7 Int) ) 
    (=>
      (and
        (inv_main55 F E D C B)
        (and (<= 1 (+ E (* (- 1) B))) (<= 1 B) (= A (+ B E)) (= v_6 C) (= v_7 B))
      )
      (inv_main65 F E D C B A v_6 v_7)
    )
  )
)
(assert
  (forall ( (A Int) (B Int) (C Int) (D Int) (E Int) (F Int) (G Heap) ) 
    (=>
      (and
        (inv_main21 G F E D C B A)
        (not (<= 2 D))
      )
      (inv_main22 G F E D C B A)
    )
  )
)
(assert
  (forall ( (A Heap) (B Int) (C Int) (D Int) (E Int) (F Int) (G Int) (H Heap) ) 
    (=>
      (and
        (inv_main12 H G F E D C B)
        (let ((a!1 (ite (and (not (<= B 0)) (>= (HeapSize H) B))
                (select (HeapContents H) B)
                defObj)))
(let ((a!2 (O_node (node 0 (data (getnode a!1))))))
(let ((a!3 (ite (and (not (<= B 0)) (>= (HeapSize H) B))
                (HeapCtor (HeapSize H) (store (HeapContents H) B a!2))
                H)))
  (and ((_ is O_node) a!1) (= A a!3)))))
      )
      (inv_main18 A G F E D C B)
    )
  )
)
(assert
  (forall ( (A Int) (B Int) (C Int) (D Int) (E Int) (F Int) (G Int) (H Int) (I Int) (J Heap) (K Int) (L Int) (M Int) (N Int) (O Int) (P Int) (Q Int) (R Int) (S Int) (T Heap) ) 
    (=>
      (and
        (inv_main51 T S R Q P O N M L)
        (let ((a!1 (ite (and (not (<= N 0)) (>= (HeapSize T) N))
                (select (HeapContents T) N)
                defObj)))
  (and (= C M)
       (= B (next (getnode a!1)))
       (= K L)
       (= I S)
       (= H R)
       (= G Q)
       (= F P)
       (= E O)
       (= D N)
       (= J T)
       ((_ is O_node) a!1)
       (<= 2 K)
       (= A (+ (- 1) K))))
      )
      (inv_main51 J I H G F E B C A)
    )
  )
)
(assert
  (forall ( (A Int) (B Int) (C Int) (D Int) (E Int) (F Int) (G Heap) (v_7 Int) (v_8 Int) ) 
    (=>
      (and
        (inv_main43 G F E D C)
        (and (= A (+ C F))
     (<= 1 (+ F (* (- 1) C)))
     (<= 1 C)
     (= B (+ C F))
     (= v_7 D)
     (= v_8 C))
      )
      (inv_main51 G F E D C B v_7 A v_8)
    )
  )
)
(assert
  (forall ( (A Int) (B Int) (C Int) (D Int) (E Int) (F Int) (G Int) (H node) (I Heap) (J Int) (K Int) (L Int) (M Int) (N Int) (O Int) (P Int) (Q Heap) ) 
    (=>
      (and
        (inv_main21 Q P O N M L K)
        (let ((a!1 (HeapCtor (+ 1 (HeapSize Q))
                     (store (HeapContents Q) (+ 1 (HeapSize Q)) (O_node H)))))
  (and (= J (+ 1 (HeapSize Q)))
       (= G P)
       (= F O)
       (= E N)
       (= D M)
       (= C L)
       (= B K)
       (= A M)
       (= I a!1)
       (<= 2 N)
       (not (= 0 J))))
      )
      (inv_main28 I G F E D C B A J)
    )
  )
)
(assert
  (forall ( (A Int) (B Int) (C Int) (D Int) (E Heap) (v_5 Int) ) 
    (=>
      (and
        (inv_main43 E D C B A)
        (let ((a!1 (not (<= 1 (+ D (* (- 1) A))))))
  (and a!1 (= 0 v_5)))
      )
      (inv_main55 E D C B v_5)
    )
  )
)
(assert
  (forall ( (A Int) (B Int) (C Int) (D Int) (E Int) (F Heap) (G Int) (H Int) (I Int) (J Int) (K Int) (L Int) (M Int) (N Int) (O Int) (P Heap) ) 
    (=>
      (and
        (inv_main64 P O N M L K J I)
        (let ((a!1 (ite (and (not (<= J 0)) (>= (HeapSize P) J))
                (select (HeapContents P) J)
                defObj)))
  (and (= H G)
       (= H K)
       (= E O)
       (= D N)
       (= C M)
       (= B L)
       (= A (+ 1 B))
       (= F P)
       ((_ is O_node) a!1)
       (= G (data (getnode a!1)))))
      )
      (inv_main55 F E D C A)
    )
  )
)
(assert
  (forall ( (A Int) (B Int) (C Int) (D Int) (E Int) (F Int) (G Int) (H Int) (I Heap) (J Int) (K Int) (L Int) (M Int) (N Int) (O Int) (P Int) (Q Int) (R Heap) ) 
    (=>
      (and
        (inv_main34 R Q P O N M L K J)
        (let ((a!1 (ite (and (not (<= J 0)) (>= (HeapSize R) J))
                (select (HeapContents R) J)
                defObj)))
(let ((a!2 (O_node (node (next (getnode a!1)) K))))
(let ((a!3 (ite (and (not (<= J 0)) (>= (HeapSize R) J))
                (HeapCtor (HeapSize R) (store (HeapContents R) J a!2))
                R)))
  (and (= H Q)
       (= G P)
       (= F O)
       (= E N)
       (= D M)
       (= C L)
       (= B K)
       (= I a!3)
       ((_ is O_node) a!1)
       (= A J)))))
      )
      (inv_main36 I H G F E D C A)
    )
  )
)
(assert
  (forall ( (A Int) (B Int) (C Int) (D Int) (E Int) (F node) (G Heap) (H Int) (I Int) (J Int) (K Heap) ) 
    (=>
      (and
        (inv_main4 K J I)
        (let ((a!1 (HeapCtor (+ 1 (HeapSize K))
                     (store (HeapContents K) (+ 1 (HeapSize K)) (O_node F)))))
  (and (= B I)
       (= H (+ 1 (HeapSize K)))
       (= E J)
       (= D I)
       (= C J)
       (= A I)
       (= G a!1)
       (not (= 0 H))))
      )
      (inv_main12 G E D C B A H)
    )
  )
)
(assert
  (forall ( (A Int) (B Int) (C Int) (D Int) (E Heap) (v_5 Int) ) 
    (=>
      (and
        (inv_main55 E D C B A)
        (let ((a!1 (not (<= 1 (+ D (* (- 1) A))))))
  (and a!1 (not (= 0 B)) (= v_5 B)))
      )
      (inv_main72 E D C B A v_5)
    )
  )
)
(assert
  (forall ( (A Int) (B Int) (C Int) (D Int) (E Heap) (F Int) (G Int) (H Int) (I Int) (J Int) (K Int) (L Int) (M Heap) ) 
    (=>
      (and
        (inv_main72 M L K J I H)
        (let ((a!1 (ite (and (not (<= H 0)) (>= (HeapSize M) H))
                (select (HeapContents M) H)
                defObj)))
  (and (= G (next (getnode a!1)))
       (not (= G F))
       (= F H)
       (= C K)
       (= B J)
       (= A I)
       (= E M)
       ((_ is O_node) a!1)
       (= D L)))
      )
      (inv_main76 E D C B A F G)
    )
  )
)
(assert
  (forall ( (A Int) (B Int) (C Int) (D Int) (E Int) (F Heap) (G Int) (H Int) (I Int) (J Int) (K Int) (L Int) (M Int) (N Heap) (O Int) (P Int) (Q Int) (R Int) (S Int) (T Int) (U Int) (V Int) (W Heap) ) 
    (=>
      (and
        (inv_main76 W V U T S R Q)
        (let ((a!1 (ite (and (not (<= Q 0)) (>= (HeapSize W) Q))
                (select (HeapContents W) Q)
                defObj))
      (a!2 (ite (and (not (<= H 0)) (>= (HeapSize N) H))
                (HeapCtor (HeapSize N) (store (HeapContents N) H defObj))
                N)))
  (and (= C K)
       (= B J)
       (= A H)
       (= E M)
       (not (= P O))
       (= P G)
       (= O I)
       (= M V)
       (= L U)
       (= K T)
       (= J S)
       (= I R)
       (= H Q)
       (= G (next (getnode a!1)))
       (= F a!2)
       (= N W)
       ((_ is O_node) a!1)
       (= D L)))
      )
      (inv_main76 F E D C B O P)
    )
  )
)
(assert
  (forall ( (A Int) (B Int) (C Int) (D Int) (E Heap) (F Int) (G Int) (H Int) (I Int) (J Int) (K Int) (L Int) (M Int) (N Int) (O Heap) ) 
    (=>
      (and
        (inv_main64 O N M L K J I H)
        (let ((a!1 (ite (and (not (<= I 0)) (>= (HeapSize O) I))
                (select (HeapContents O) I)
                defObj)))
  (and (not (= G F))
       (= G J)
       (= D N)
       (= C M)
       (= B L)
       (= A K)
       (= E O)
       ((_ is O_node) a!1)
       (= F (data (getnode a!1)))))
      )
      (inv_main79 E D C B A)
    )
  )
)
(assert
  (forall ( (A Int) (B Int) (C Int) (D Int) (E Int) (F Int) (G Int) (H Int) (I Heap) (J Int) (K Int) (L Int) (M Int) (N Int) (O Int) (P Int) (Q Heap) ) 
    (=>
      (and
        (inv_main36 Q P O N M L K J)
        (let ((a!1 (ite (and (not (<= J 0)) (>= (HeapSize Q) J))
                (select (HeapContents Q) J)
                defObj)))
(let ((a!2 (O_node (node L (data (getnode a!1))))))
(let ((a!3 (ite (and (not (<= J 0)) (>= (HeapSize Q) J))
                (HeapCtor (HeapSize Q) (store (HeapContents Q) J a!2))
                Q)))
  (and (= G O)
       (= F N)
       (= E M)
       (= D L)
       (= C K)
       (= B J)
       (= A (+ (- 1) F))
       (= I a!3)
       ((_ is O_node) a!1)
       (= H P)))))
      )
      (inv_main21 I H G A E B C)
    )
  )
)
(assert
  (forall ( (A Int) (B Int) (C Int) (D Int) (E Int) (F Int) (G Heap) (H Int) (I Int) (J Int) (K Int) (L Int) (M Int) (N Heap) (v_14 Int) ) 
    (=>
      (and
        (inv_main18 N M L K J I H)
        (let ((a!1 (ite (and (not (<= H 0)) (>= (HeapSize N) H))
                (select (HeapContents N) H)
                defObj)))
(let ((a!2 (O_node (node (next (getnode a!1)) I))))
(let ((a!3 (ite (and (not (<= H 0)) (>= (HeapSize N) H))
                (HeapCtor (HeapSize N) (store (HeapContents N) H a!2))
                N)))
  (and (= F M)
       (= D K)
       (= C J)
       (= B I)
       (= A H)
       (= G a!3)
       ((_ is O_node) a!1)
       (= E L)
       (= v_14 A)))))
      )
      (inv_main21 G F E D C A v_14)
    )
  )
)
(assert
  (forall ( (A Int) (B Int) (C Int) (D Int) (E Int) (F Int) (G Int) (H Int) (I Int) (J Heap) (K Int) (L Int) (M Int) (N Int) (O Int) (P Int) (Q Int) (R Int) (S Int) (T Heap) ) 
    (=>
      (and
        (inv_main51 T S R Q P O N M L)
        (let ((a!1 (ite (and (not (<= N 0)) (>= (HeapSize T) N))
                (select (HeapContents T) N)
                defObj)))
  (and (= C M)
       (= B (next (getnode a!1)))
       (= K L)
       (= I S)
       (= H R)
       (= G Q)
       (= F P)
       (= E O)
       (= D N)
       (= J T)
       ((_ is O_node) a!1)
       (not (<= 2 K))
       (= A (+ (- 1) K))))
      )
      (inv_main50 J I H G F E B C A)
    )
  )
)
(assert
  (forall ( (A Int) (B Int) (C Int) (D Int) (E Int) (F Int) (G Heap) (v_7 Int) (v_8 Int) ) 
    (=>
      (and
        (inv_main43 G F E D C)
        (and (= A (+ C F))
     (<= 1 (+ F (* (- 1) C)))
     (not (<= 1 C))
     (= B (+ C F))
     (= v_7 D)
     (= v_8 C))
      )
      (inv_main50 G F E D C B v_7 A v_8)
    )
  )
)
(assert
  (forall ( (A Int) (B Int) (C Int) (D Int) (E Int) (F Int) (G Int) (H Int) (I Int) (J Heap) (K Int) (L Int) (M Int) (N Int) (O Int) (P Int) (Q Int) (R Int) (S Heap) ) 
    (=>
      (and
        (inv_main50 S R Q P O N M L K)
        (let ((a!1 (ite (and (not (<= M 0)) (>= (HeapSize S) M))
                (select (HeapContents S) M)
                defObj)))
(let ((a!2 (O_node (node (next (getnode a!1)) L))))
(let ((a!3 (ite (and (not (<= M 0)) (>= (HeapSize S) M))
                (HeapCtor (HeapSize S) (store (HeapContents S) M a!2))
                S)))
  (and (= A (+ 1 F))
       (= I R)
       (= H Q)
       (= G P)
       (= F O)
       (= E N)
       (= D M)
       (= C L)
       (= J a!3)
       ((_ is O_node) a!1)
       (= B K)))))
      )
      (inv_main43 J I H G A)
    )
  )
)
(assert
  (forall ( (A Int) (B Int) (C Int) (D Int) (E Int) (F Int) (G Heap) (H Int) (I Int) (J Int) (K Int) (L Int) (M Int) (N Heap) (v_14 Int) ) 
    (=>
      (and
        (inv_main22 N M L K J I H)
        (let ((a!1 (ite (and (not (<= H 0)) (>= (HeapSize N) H))
                (select (HeapContents N) H)
                defObj)))
(let ((a!2 (O_node (node I (data (getnode a!1))))))
(let ((a!3 (ite (and (not (<= H 0)) (>= (HeapSize N) H))
                (HeapCtor (HeapSize N) (store (HeapContents N) H a!2))
                N)))
  (and (= F M)
       (= D K)
       (= C J)
       (= B I)
       (= A H)
       (= G a!3)
       ((_ is O_node) a!1)
       (= E L)
       (= 0 v_14)))))
      )
      (inv_main43 G F E B v_14)
    )
  )
)
(assert
  (forall ( (A Int) (B Int) (C Int) (D Int) (E Int) (F Int) (G Heap) ) 
    (=>
      (and
        (inv_main12 G F E D C B A)
        (let ((a!1 (ite (and (not (<= A 0)) (>= (HeapSize G) A))
                (select (HeapContents G) A)
                defObj)))
  (not ((_ is O_node) a!1)))
      )
      CHC_COMP_FALSE
    )
  )
)
(assert
  (forall ( (A Int) (B Int) (C Int) (D Int) (E Int) (F Int) (G Heap) ) 
    (=>
      (and
        (inv_main18 G F E D C B A)
        (let ((a!1 (ite (and (not (<= A 0)) (>= (HeapSize G) A))
                (select (HeapContents G) A)
                defObj)))
  (not ((_ is O_node) a!1)))
      )
      CHC_COMP_FALSE
    )
  )
)
(assert
  (forall ( (A Int) (B Int) (C Int) (D Int) (E Int) (F Int) (G Int) (H Int) (I Heap) ) 
    (=>
      (and
        (inv_main28 I H G F E D C B A)
        (let ((a!1 (ite (and (not (<= A 0)) (>= (HeapSize I) A))
                (select (HeapContents I) A)
                defObj)))
  (not ((_ is O_node) a!1)))
      )
      CHC_COMP_FALSE
    )
  )
)
(assert
  (forall ( (A Int) (B Int) (C Int) (D Int) (E Int) (F Int) (G Int) (H Int) (I Heap) ) 
    (=>
      (and
        (inv_main34 I H G F E D C B A)
        (let ((a!1 (ite (and (not (<= A 0)) (>= (HeapSize I) A))
                (select (HeapContents I) A)
                defObj)))
  (not ((_ is O_node) a!1)))
      )
      CHC_COMP_FALSE
    )
  )
)
(assert
  (forall ( (A Int) (B Int) (C Int) (D Int) (E Int) (F Int) (G Int) (H Heap) ) 
    (=>
      (and
        (inv_main36 H G F E D C B A)
        (let ((a!1 (ite (and (not (<= A 0)) (>= (HeapSize H) A))
                (select (HeapContents H) A)
                defObj)))
  (not ((_ is O_node) a!1)))
      )
      CHC_COMP_FALSE
    )
  )
)
(assert
  (forall ( (A Int) (B Int) (C Int) (D Int) (E Int) (F Int) (G Heap) ) 
    (=>
      (and
        (inv_main22 G F E D C B A)
        (let ((a!1 (ite (and (not (<= A 0)) (>= (HeapSize G) A))
                (select (HeapContents G) A)
                defObj)))
  (not ((_ is O_node) a!1)))
      )
      CHC_COMP_FALSE
    )
  )
)
(assert
  (forall ( (A Int) (B Int) (C Int) (D Int) (E Int) (F Int) (G Int) (H Int) (I Heap) ) 
    (=>
      (and
        (inv_main51 I H G F E D C B A)
        (let ((a!1 (ite (and (not (<= C 0)) (>= (HeapSize I) C))
                (select (HeapContents I) C)
                defObj)))
  (not ((_ is O_node) a!1)))
      )
      CHC_COMP_FALSE
    )
  )
)
(assert
  (forall ( (A Int) (B Int) (C Int) (D Int) (E Int) (F Int) (G Int) (H Int) (I Heap) ) 
    (=>
      (and
        (inv_main50 I H G F E D C B A)
        (let ((a!1 (ite (and (not (<= C 0)) (>= (HeapSize I) C))
                (select (HeapContents I) C)
                defObj)))
  (not ((_ is O_node) a!1)))
      )
      CHC_COMP_FALSE
    )
  )
)
(assert
  (forall ( (A Int) (B Int) (C Int) (D Int) (E Int) (F Int) (G Int) (H Heap) ) 
    (=>
      (and
        (inv_main65 H G F E D C B A)
        (let ((a!1 (ite (and (not (<= B 0)) (>= (HeapSize H) B))
                (select (HeapContents H) B)
                defObj)))
  (not ((_ is O_node) a!1)))
      )
      CHC_COMP_FALSE
    )
  )
)
(assert
  (forall ( (A Int) (B Int) (C Int) (D Int) (E Int) (F Int) (G Int) (H Heap) ) 
    (=>
      (and
        (inv_main64 H G F E D C B A)
        (let ((a!1 (ite (and (not (<= B 0)) (>= (HeapSize H) B))
                (select (HeapContents H) B)
                defObj)))
  (not ((_ is O_node) a!1)))
      )
      CHC_COMP_FALSE
    )
  )
)
(assert
  (forall ( (A Int) (B Int) (C Int) (D Int) (E Int) (F Heap) ) 
    (=>
      (and
        (inv_main72 F E D C B A)
        (let ((a!1 (ite (and (not (<= A 0)) (>= (HeapSize F) A))
                (select (HeapContents F) A)
                defObj)))
  (not ((_ is O_node) a!1)))
      )
      CHC_COMP_FALSE
    )
  )
)
(assert
  (forall ( (A Int) (B Int) (C Int) (D Int) (E Int) (F Int) (G Heap) ) 
    (=>
      (and
        (inv_main76 G F E D C B A)
        (let ((a!1 (ite (and (not (<= A 0)) (>= (HeapSize G) A))
                (select (HeapContents G) A)
                defObj)))
  (not ((_ is O_node) a!1)))
      )
      CHC_COMP_FALSE
    )
  )
)
(assert
  (forall ( (A Int) (B Int) (C Int) (D Int) (E Heap) ) 
    (=>
      (and
        (inv_main79 E D C B A)
        true
      )
      CHC_COMP_FALSE
    )
  )
)
(assert
  (forall ( (CHC_COMP_UNUSED Bool) ) 
    (=>
      (and
        CHC_COMP_FALSE
      )
      false
    )
  )
)

(check-sat)
(exit)
